%Chk=checkpoint.chk
# RHF/cc-pVTZ SP

 Test run

0 1
C         -1.26994        0.12499        0.00000
H         -0.19994        0.12499        0.00000
H         -1.62661        1.13315       -0.03631
H         -1.62661       -0.34763        0.89124
H         -1.62661       -0.41053       -0.85493


